100 8
517 456
269 395
702 383
846 236
664 834
422 632
401 157
232 370
424 589
593 363
36 442
463 179
524 715
283 567
239 200
625 754
41 316
98 390
573 442
175 327
742 686
122 276
818 293
475 835
459 682
241 384
520 435
763 769
787 314
684 539
571 610
312 562
570 643
137 422
350 590
591 346
375 491
483 833
642 538
296 530
624 561
441 600
406 645
268 490
729 757
470 609
466 173
822 173
679 375
230 256
118 349
237 397
860 825
422 659
677 823
905 841
489 747
430 600
387 565
868 169
800 763
531 522
878 812
682 689
292 386
130 388
684 556
732 690
530 660
194 400
227 281
390 567
283 606
280 496
387 88
649 330
586 590
65 372
440 751
115 376
637 790
363 611
641 300
79 376
354 685
206 375
349 219
624 705
727 312
683 659
590 519
199 344
102 370
608 757
544 492
745 141
604 303
116 210
64 233
483 240
